15
-1 257 259 142 662 301 369 506 168 275 119 254 368 286 470 
257 -1 250 337 705 295 111 264 422 182 359 508 328 116 218 
259 250 -1 400 459 489 321 493 349 85 372 418 109 162 365 
142 337 400 -1 797 233 441 545 204 406 73 270 509 401 554 
662 705 459 797 -1 939 754 919 645 523 741 659 381 599 752 
301 295 489 233 939 -1 354 385 430 452 304 503 591 406 468 
369 111 321 441 754 354 -1 171 534 239 469 619 373 160 116 
506 264 493 545 919 385 171 -1 674 410 589 761 540 331 185 
168 422 349 204 645 430 534 674 -1 397 131 86 444 431 629 
275 182 85 406 523 452 239 410 397 -1 394 474 145 79 280 
119 359 372 73 741 304 469 589 131 394 -1 198 479 403 577 
254 508 418 270 659 503 619 761 86 474 198 -1 504 513 714 
368 328 109 509 381 591 373 540 444 145 479 504 -1 219 384 
286 116 162 401 599 406 160 331 431 79 403 513 219 -1 211 
470 218 365 554 752 468 116 185 629 280 577 714 384 211 -1 
